% From JaCoP's nonogramRepository/data091.nin
 rows = 25;
 row_rule_len = 4;
 row_rules = array2d(1..rows, 1..row_rule_len, 
[
 0,0,1,1,
 0,0,2,2,
 0,0,0,8,
 0,2,2,2,
 0,0,2,2,
 2,1,1,2,
 0,0,2,2,
 0,0,5,5,
 0,2,8,2,
 0,4,4,4,
 0,0,6,7,
 1,4,3,1,
 0,4,2,4,
 0,1,6,1,
 2,2,1,2,
 0,0,0,8,
 0,0,2,8,
 0,0,3,4,
 0,0,0,12,
 0,0,0,12,
 0,0,3,11,
 0,0,3,8,
 0,0,3,4,
 0,0,3,2,
 0,0,0,2
]);

 cols = 25;
 col_rule_len = 5;
 col_rules = array2d(1..cols, 1..col_rule_len, 
[
 0,0,0,1,2,
 0,0,0,2,2,
 0,0,0,1,2,
 0,0,4,2,2,
 0,0,9,1,3,
 0,5,2,3,4,
 0,4,6,3,3,
 2,2,4,2,2,
 0,1,1,4,7,
 0,0,2,2,9,
 0,2,3,2,5,
 0,1,1,4,7,
 2,2,4,2,2,
 0,4,6,3,2,
 0,5,2,3,3,
 0,0,0,9,2,
 0,0,0,4,2,
 0,0,0,0,2,
 0,0,0,0,2,
 0,0,0,0,2,
 0,0,0,0,2,
 0,0,0,0,3,
 0,0,0,0,3,
 0,0,0,0,4,
 0,0,0,0,4
]);

